Maximize
6.0 x0 +14.0 x1 +20.0 x2 +28.0 x3 +34.0 x4 +37.0 x5 +38.0 x6 
Subject To
-6.0 x0 +2.0 x1 -4.0 x2 +4.0 x3 -2.0 x4 +1.0 x5 +2.0 x6  <= 11
-6.0 x0 +2.0 x1 -4.0 x2 +4.0 x3 -2.0 x4 +1.0 x5 +2.0 x6  >= -1
6.0 x0 -2.0 x1 +4.0 x2 +12.0 x3 +6.0 x4 +3.0 x5 +2.0 x6  <= 11
6.0 x0 -2.0 x1 +4.0 x2 +12.0 x3 +6.0 x4 +3.0 x5 +2.0 x6  >= -1
-6.0 x0 -14.0 x1 -20.0 x2 -12.0 x3 -6.0 x4 -9.0 x5 -10.0 x6  <= 11
-6.0 x0 -14.0 x1 -20.0 x2 -12.0 x3 -6.0 x4 -9.0 x5 -10.0 x6  >= -1
0.0 x0 -4.0 x1 -4.0 x2 -8.0 x3 -8.0 x4 -5.0 x5 -4.0 x6  <= 11
0.0 x0 -4.0 x1 -4.0 x2 -8.0 x3 -8.0 x4 -5.0 x5 -4.0 x6  >= -1
0.0 x0 +4.0 x1 +4.0 x2 +0.0 x3 +0.0 x4 -3.0 x5 -4.0 x6  <= 11
0.0 x0 +4.0 x1 +4.0 x2 +0.0 x3 +0.0 x4 -3.0 x5 -4.0 x6  >= -1
-2.0 x0 -2.0 x1 +0.0 x2 +0.0 x3 +2.0 x4 +1.0 x5 +2.0 x6  <= 11
-2.0 x0 -2.0 x1 +0.0 x2 +0.0 x3 +2.0 x4 +1.0 x5 +2.0 x6  >= -1
2.0 x0 +2.0 x1 +0.0 x2 +0.0 x3 +2.0 x4 +3.0 x5 +2.0 x6  <= 11
2.0 x0 +2.0 x1 +0.0 x2 +0.0 x3 +2.0 x4 +3.0 x5 +2.0 x6  >= -1
-2.0 x0 -2.0 x1 +0.0 x2 +0.0 x3 -2.0 x4 -1.0 x5 -2.0 x6  <= 11
-2.0 x0 -2.0 x1 +0.0 x2 +0.0 x3 -2.0 x4 -1.0 x5 -2.0 x6  >= -1
2.0 x0 +2.0 x1 +0.0 x2 +0.0 x3 -2.0 x4 -3.0 x5 -2.0 x6  <= 11
2.0 x0 +2.0 x1 +0.0 x2 +0.0 x3 -2.0 x4 -3.0 x5 -2.0 x6  >= -1
End
